num_features = 90;
num_usage_limits = 8;
num_plans = 4;
num_addons = 5;

features = ["ownerRole","adminRole","authorRole","viewerRole","managerRole","contacts","audiences","basicSegmentation","advancedSegmentation","contactProfiles","tags","inbox","mailchipMobileApp","audienceDashboard","surveys","predictedDemographics","customerLifetimeValue","purchaseLikelihood","addressFinder","campainEngagement","purchaseBehavior","appEngagement","siteViewsWebsiteEngagement","pageViewsWebsiteEngagement","contentStudio","basicTemplates","prebuiltTemplates","customCodedTemplates","removeMailchimpFooter","publishDesignsFromMailchimp","downloadDesigns","emailMarketing","emailScheduling","landingPages","socialPosting","socialPostScheduling","campaignManager","postCards","popupForms","retargetingAds","marketingCalendar","singleStepAutomations","multiStepAutomations","customerJourneyBuilder","multipleStartingPoints","branchingPoints","smsMarketing","mmsMarketing","sendSmsFromCustomerJourneyBuiler","sendMmsFromCustomerJourneyBuiler","smsAutomation","smsAndMmsAddOnContentTemplates","smsAndMmsAddOnRealTimeReporting","smsAndMmsAddOnBulkConversations","smsAndMmsAddOnTwoWayConversations","smsAndMmsAddOnTextToJoin","smsAndMmsAddOnTapToText","smsAndMmsAddOnMultiStepPopUpForm","autoVetting","standardVetting","basicReports","customReports","anomalyDetection","comparativeReporting","abTesting","multivarianteTesting","personalizedProductRecommendations","nextBestAction","subjectLineHelper","contentOptimizer","dynamicContent","sendTimeOptimization","deliveryByTimezone","integrations","guides","tutorials","30DayEmailSupport","24/7EmailSupport","liveChatSupport","personalizedOnboarding","phoneSupport","premiumMigrationServices","transactionalEmails","buildAndPublishWebsite","pages","unlimitedBandwidth","seoTools","sslCertificate","siteVisitAnalytics","freeMailchimpDomain"];
usage_limits = ["contactsLimit","audiencesLimit","seatsLimit","appEngagementThreshold","monthlyEmailSends","dailyEmailSends","standardVettingIncludedCredits","personalizedOnboardingSessionsLimit"];
plans = ["FREE","ESSENTIALS","STANDARD","PREMIUM"];
addons = ["premiumMigrationServicesAddOn","transactionalEmailsAddOn","smsAndMmsMarketingAddOnForEssentialsTier","smsAndMmsMarketingAddOnForStandardTier","smsAndMmsMarketingAddOnForPremiumTier"];

plans_prices = [0,13,20,350];
addons_prices = [100,100,100,100,100];

linked_features = array2d(USAGE_LIMITS, FEATURES, [
    % contactsLimit
    0,0,0,0,0,1,0,0,0,0,0,0,0,0,0,0,0,0,0,0,0,0,0,0,0,0,0,0,0,0,0,0,0,0,0,0,0,0,0,0,0,0,0,0,0,0,0,0,0,0,0,0,0,0,0,0,0,0,0,0,0,0,0,0,0,0,0,0,0,0,0,0,0,0,0,0,0,0,0,0,0,0,0,0,0,0,0,0,0,0,
    % audiencesLimit
    0,0,0,0,0,0,1,0,0,0,0,0,0,0,0,0,0,0,0,0,0,0,0,0,0,0,0,0,0,0,0,0,0,0,0,0,0,0,0,0,0,0,0,0,0,0,0,0,0,0,0,0,0,0,0,0,0,0,0,0,0,0,0,0,0,0,0,0,0,0,0,0,0,0,0,0,0,0,0,0,0,0,0,0,0,0,0,0,0,0,
    % seatsLimit
    0,0,0,0,0,0,0,0,0,0,0,0,0,0,0,0,0,0,0,0,0,0,0,0,0,0,0,0,0,0,0,0,0,0,0,0,0,0,0,0,0,0,0,0,0,0,0,0,0,0,0,0,0,0,0,0,0,0,0,0,0,0,0,0,0,0,0,0,0,0,0,0,0,0,0,0,0,0,0,0,0,0,0,0,0,0,0,0,0,0,
    % appEngagementThreshold
    0,0,0,0,0,0,0,0,0,0,0,0,0,0,0,0,0,0,0,0,0,1,0,0,0,0,0,0,0,0,0,0,0,0,0,0,0,0,0,0,0,0,0,0,0,0,0,0,0,0,0,0,0,0,0,0,0,0,0,0,0,0,0,0,0,0,0,0,0,0,0,0,0,0,0,0,0,0,0,0,0,0,0,0,0,0,0,0,0,0,
    % monthlyEmailSends
    0,0,0,0,0,0,0,0,0,0,0,0,0,0,0,0,0,0,0,0,0,0,0,0,0,0,0,0,0,0,0,1,0,0,0,0,0,0,0,0,0,0,0,0,0,0,0,0,0,0,0,0,0,0,0,0,0,0,0,0,0,0,0,0,0,0,0,0,0,0,0,0,0,0,0,0,0,0,0,0,0,0,0,0,0,0,0,0,0,0,
    % dailyEmailSends
    0,0,0,0,0,0,0,0,0,0,0,0,0,0,0,0,0,0,0,0,0,0,0,0,0,0,0,0,0,0,0,1,0,0,0,0,0,0,0,0,0,0,0,0,0,0,0,0,0,0,0,0,0,0,0,0,0,0,0,0,0,0,0,0,0,0,0,0,0,0,0,0,0,0,0,0,0,0,0,0,0,0,0,0,0,0,0,0,0,0,
    % standardVettingIncludedCredits
    0,0,0,0,0,0,0,0,0,0,0,0,0,0,0,0,0,0,0,0,0,0,0,0,0,0,0,0,0,0,0,0,0,0,0,0,0,0,0,0,0,0,0,0,0,0,0,0,0,0,0,0,0,0,0,0,0,0,0,1,0,0,0,0,0,0,0,0,0,0,0,0,0,0,0,0,0,0,0,0,0,0,0,0,0,0,0,0,0,0,
    % personalizedOnboardingSessionsLimit
    0,0,0,0,0,0,0,0,0,0,0,0,0,0,0,0,0,0,0,0,0,0,0,0,0,0,0,0,0,0,0,0,0,0,0,0,0,0,0,0,0,0,0,0,0,0,0,0,0,0,0,0,0,0,0,0,0,0,0,0,0,0,0,0,0,0,0,0,0,0,0,0,0,0,0,0,0,0,0,1,0,0,0,0,0,0,0,0,0,0
]);

plans_features = array2d(PLANS, FEATURES, [
    % FREE
    1,0,0,0,0,1,1,1,0,1,1,1,1,1,1,0,0,0,0,1,1,1,1,0,1,1,0,0,0,1,0,1,0,1,1,0,1,1,1,0,0,1,0,0,0,0,0,0,0,0,0,0,0,0,0,0,0,0,0,0,1,0,0,0,0,0,1,1,1,0,0,0,0,1,1,1,1,0,0,0,0,0,0,1,1,1,1,1,1,1,
    % ESSENTIALS
    1,1,0,0,0,1,1,1,0,1,1,1,1,1,1,0,0,0,0,1,1,1,1,0,1,1,1,0,1,1,0,1,1,1,1,0,1,1,1,0,0,1,0,1,0,0,0,0,0,0,0,0,0,0,0,0,0,0,0,0,1,0,0,0,1,0,1,1,1,0,0,0,0,1,1,1,1,1,1,0,0,0,0,1,1,1,1,1,1,1,
    % STANDARD
    1,1,1,1,0,1,1,1,1,1,1,1,1,1,1,1,1,1,1,1,1,1,1,1,1,1,1,1,1,1,1,1,1,1,1,1,1,1,1,1,1,1,1,1,1,1,0,0,0,0,0,0,0,0,0,0,0,0,0,0,1,1,1,1,1,1,1,1,1,1,1,1,1,1,1,1,1,1,1,1,0,0,0,1,1,1,1,1,1,1,
    % PREMIUM
    1,1,1,1,1,1,1,1,1,1,1,1,1,1,1,1,1,1,1,1,1,1,1,1,1,1,1,1,1,1,1,1,1,1,1,1,1,1,1,1,1,1,1,1,1,1,0,0,0,0,0,0,0,0,0,0,0,0,0,0,1,1,1,1,1,1,1,1,1,1,1,1,1,1,1,1,1,1,1,1,1,0,0,1,1,1,1,1,1,1
]);
plans_usage_limits = array2d(PLANS, USAGE_LIMITS, [
    % FREE
    500,1,1,1,2500,500,5000,0,
    % ESSENTIALS
    50000,3,3,1,500000,1000000000,5000,0,
    % STANDARD
    100000,5,5,3,1200000,500,5000,1,
    % PREMIUM
    1000000000,1000000000,1000000000,18,1000000000,500,5000,4
]);

addons_features = array2d(ADDONS, FEATURES, [
    % premiumMigrationServicesAddOn
    0,0,0,0,0,0,0,0,0,0,0,0,0,0,0,0,0,0,0,0,0,0,0,0,0,0,0,0,0,0,0,0,0,0,0,0,0,0,0,0,0,0,0,0,0,0,0,0,0,0,0,0,0,0,0,0,0,0,0,0,0,0,0,0,0,0,0,0,0,0,0,0,0,0,0,0,0,0,0,0,0,1,0,0,0,0,0,0,0,0,
    % transactionalEmailsAddOn
    0,0,0,0,0,0,0,0,0,0,0,0,0,0,0,0,0,0,0,0,0,0,0,0,0,0,0,0,0,0,0,0,0,0,0,0,0,0,0,0,0,0,0,0,0,0,0,0,0,0,0,0,0,0,0,0,0,0,0,0,0,0,0,0,0,0,0,0,0,0,0,0,0,0,0,0,0,0,0,0,0,0,1,0,0,0,0,0,0,0,
    % smsAndMmsMarketingAddOnForEssentialsTier
    0,0,0,0,0,0,0,0,0,0,0,0,0,0,0,0,0,0,0,0,0,0,0,0,0,0,0,0,0,0,0,0,0,0,0,0,0,0,0,0,0,0,0,0,0,0,1,0,0,0,1,1,0,1,1,1,1,1,1,1,0,0,0,0,0,0,0,0,0,0,0,0,0,0,0,0,0,0,0,0,0,0,0,0,0,0,0,0,0,0,
    % smsAndMmsMarketingAddOnForStandardTier
    0,0,0,0,0,0,0,0,0,0,0,0,0,0,0,0,0,0,0,0,0,0,0,0,0,0,0,0,0,0,0,0,0,0,0,0,0,0,0,0,0,0,0,0,0,0,1,1,1,1,1,1,1,1,1,1,1,1,1,1,0,0,0,0,0,0,0,0,0,0,0,0,0,0,0,0,0,0,0,0,0,0,0,0,0,0,0,0,0,0,
    % smsAndMmsMarketingAddOnForPremiumTier
    0,0,0,0,0,0,0,0,0,0,0,0,0,0,0,0,0,0,0,0,0,0,0,0,0,0,0,0,0,0,0,0,0,0,0,0,0,0,0,0,0,0,0,0,0,0,1,1,1,1,1,1,1,1,1,1,1,1,1,1,0,0,0,0,0,0,0,0,0,0,0,0,0,0,0,0,0,0,0,0,0,0,0,0,0,0,0,0,0,0
]);
addons_usage_limits = array2d(ADDONS, USAGE_LIMITS, [
    % premiumMigrationServicesAddOn
    0,0,0,0,0,0,0,0,
    % transactionalEmailsAddOn
    0,0,0,0,0,0,0,0,
    % smsAndMmsMarketingAddOnForEssentialsTier
    0,0,0,0,0,0,0,0,
    % smsAndMmsMarketingAddOnForStandardTier
    0,0,0,0,0,0,0,0,
    % smsAndMmsMarketingAddOnForPremiumTier
    0,0,0,0,0,0,1000000000,0
]);
addons_usage_limits_extensions = array2d(ADDONS, USAGE_LIMITS, [
    % premiumMigrationServicesAddOn
    0,0,0,0,0,0,0,0,
    % transactionalEmailsAddOn
    0,0,0,0,0,0,0,0,
    % smsAndMmsMarketingAddOnForEssentialsTier
    0,0,0,0,0,0,0,0,
    % smsAndMmsMarketingAddOnForStandardTier
    0,0,0,0,0,0,0,0,
    % smsAndMmsMarketingAddOnForPremiumTier
    0,0,0,0,0,0,0,0
]);
addons_available_for = array2d(ADDONS, PLANS, [
    % premiumMigrationServicesAddOn
    0,0,0,1,
    % transactionalEmailsAddOn
    0,0,1,1,
    % smsAndMmsMarketingAddOnForEssentialsTier
    0,1,0,0,
    % smsAndMmsMarketingAddOnForStandardTier
    0,0,1,0,
    % smsAndMmsMarketingAddOnForPremiumTier
    0,0,0,1
]);
addons_depends_on = array2d(ADDONS, ADDONS, [
    % premiumMigrationServicesAddOn
    0,0,0,0,0,
    % transactionalEmailsAddOn
    0,0,0,0,0,
    % smsAndMmsMarketingAddOnForEssentialsTier
    0,0,0,0,0,
    % smsAndMmsMarketingAddOnForStandardTier
    0,0,0,0,0,
    % smsAndMmsMarketingAddOnForPremiumTier
    0,0,0,0,0
]);
